# Solution for model GasLib-40
# Objective value = 74.3946185404433
loadshed[innode_1] 0
loadshed[innode_2] 0
loadshed[innode_3] 0
loadshed[innode_4] 0
loadshed[innode_5] 0
loadshed[innode_6] 0
loadshed[innode_7] 0
loadshed[innode_8] 0
loadshed[source_1] 1.2913719133226365e-02
loadshed[source_2] 1.6271945066433247e-01
loadshed[source_3] 2.9494996527042938e-01
loadshed[sink_1] 8.8441285759364741e-01
loadshed[sink_2] 0
loadshed[sink_3] 0
loadshed[sink_4] 0
loadshed[sink_5] 0
loadshed[sink_6] 0
loadshed[sink_7] 0
loadshed[sink_8] 0
loadshed[sink_9] 7.4246900910904279e-01
loadshed[sink_10] 0
loadshed[sink_11] 0
loadshed[sink_12] 1
loadshed[sink_13] 0
loadshed[sink_14] 0
loadshed[sink_15] 0
loadshed[sink_16] 0
loadshed[sink_17] 0
loadshed[sink_18] 0
loadshed[sink_19] 0
loadshed[sink_20] 0
loadshed[sink_21] 1
loadshed[sink_22] 0
loadshed[sink_23] 0
loadshed[sink_24] 9.2208843895498938e-01
loadshed[sink_25] 0
loadshed[sink_26] 0
loadshed[sink_27] 0
loadshed[sink_28] 0
loadshed[sink_29] 0
flow[source_1,sink_3] 1.5604874433286182e+02
flow[innode_1,sink_16] 1.6354166666666970e+01
flow[innode_6,sink_13] 3.0176108290367409e+00
flow[sink_13,sink_14] -1.3336555837629927e+01
flow[sink_14,sink_10] -2.9690722504296595e+01
flow[sink_25,sink_26] 1.7091788145955991e+02
flow[sink_26,sink_9] 0
flow[sink_9,sink_18] -4.21170474686253
flow[sink_26,sink_4] 1.5456371479289325e+02
flow[sink_4,sink_20] 1.6354166666668277e+01
flow[sink_18,sink_6] -2.0565871413529198e+01
flow[sink_25,innode_8] -1.2334041099952546e+02
flow[sink_6,sink_7] -5.5164536138299724e+01
flow[sink_6,sink_22] 1.8244498058103893e+01
flow[sink_7,sink_24] 1.2741786545902793e+00
flow[sink_22,sink_1] 1.8903313914372240e+00
flow[sink_24,sink_21] 0
flow[sink_21,sink_12] 0
flow[sink_7,sink_5] -7.2792881459556668e+01
flow[sink_5,sink_17] -8.9147048126223339e+01
flow[sink_17,sink_4] -1.2185538145955833e+02
flow[sink_17,sink_8] 1.6354166666668334e+01
flow[sink_3,sink_23] 16.3541666666697
flow[sink_8,sink_20] 0
flow[sink_25,sink_20] 0
flow[sink_25,sink_15] -6.6949247955738159e+01
flow[sink_15,sink_29] -4.8303175215077211e+01
flow[sink_29,sink_28] 1.6354166666667879e+01
flow[sink_29,sink_2] 5.1354406073994291e+01
flow[sink_2,sink_15] 3.5000239407327626e+01
flow[sink_29,innode_7] -1.3236591462240605e+02
flow[innode_4,sink_19] 4.2886164254447735e+01
flow[sink_19,innode_3] 38.4312401649272
flow[innode_4,innode_5] 6.8575391583181954e+01
flow[sink_27,innode_5] -6.8575391583181954e+01
flow[sink_27,sink_19] 5.2221224916515290e+01
flow[sink_10,sink_11] 3.2708333333333641e+01
flow[sink_10,innode_2] -40.3219823393697
flow[sink_10,innode_3] -38.4312401649272
flow[innode_6,sink_25] -3.0176108290367409e+00
flow[sink_11,innode_1] 1.6354166666666970e+01
flow[sink_19,innode_2] 40.3219823393697
flow[source_3,innode_4] 1.1146155583762969e+02
flow[source_2,innode_7] 1.3236591462240605e+02
flow[sink_3,innode_8] 1.2334041099952546e+02
pressure[innode_1] 7.6992937602002272e+01
pressure[innode_2] 7.9275822211482989e+01
pressure[innode_3] 79.1907205820036
pressure[innode_4] 81.01325
pressure[innode_5] 8.0966080229677488e+01
pressure[innode_6] 7.5733078106777882e+01
pressure[innode_7] 81.01325
pressure[innode_8] 80.4916386604763
pressure[source_1] 81.01325
pressure[source_2] 81.01325
pressure[source_3] 81.01325
pressure[sink_1] 1.0132500000000002e+00
pressure[sink_2] 7.6172115263908623e+01
pressure[sink_3] 80.4916386604763
pressure[sink_4] 4.4043801362566207e+01
pressure[sink_5] 3.2746079776849946e+01
pressure[sink_6] 1.7148120301679324e+00
pressure[sink_7] 2.4720896189941737e+00
pressure[sink_8] 3.8769805293468266e+01
pressure[sink_9] 1.01325
pressure[sink_10] 7.7144638909605817e+01
pressure[sink_11] 7.6992937602002272e+01
pressure[sink_12] 1.01325
pressure[sink_13] 7.5716442522567021e+01
pressure[sink_14] 7.5740309425261813e+01
pressure[sink_15] 7.6057847196172219e+01
pressure[sink_16] 7.5971287767184592e+01
pressure[sink_17] 3.9386890488881889e+01
pressure[sink_18] 1.1656420307805129e+00
pressure[sink_19] 7.9275822211482989e+01
pressure[sink_20] 4.2843983653174632e+01
pressure[sink_21] 1.01325
pressure[sink_22] 1.1362080353448698e+00
pressure[sink_23] 8.0326920648816511e+01
pressure[sink_24] 1.01325
pressure[sink_25] 7.5733078106777882e+01
pressure[sink_26] 6.3695432090086513e+01
pressure[sink_27] 8.0397031193235961e+01
pressure[sink_28] 7.7177698053108244e+01
pressure[sink_29] 7.7472980326725420e+01
interdiction[source_1,sink_3] 0
interdiction[innode_1,sink_16] 0
interdiction[innode_6,sink_13] 0
interdiction[sink_13,sink_14] 0
interdiction[sink_14,sink_10] 0
interdiction[sink_25,sink_26] 0
interdiction[sink_26,sink_9] 1
interdiction[sink_9,sink_18] 0
interdiction[sink_26,sink_4] 0
interdiction[sink_4,sink_20] 0
interdiction[sink_18,sink_6] 0
interdiction[sink_25,innode_8] 0
interdiction[sink_6,sink_7] 0
interdiction[sink_6,sink_22] 0
interdiction[sink_7,sink_24] 0
interdiction[sink_22,sink_1] 0
interdiction[sink_24,sink_21] 0
interdiction[sink_21,sink_12] 0
interdiction[sink_7,sink_5] 0
interdiction[sink_5,sink_17] 0
interdiction[sink_17,sink_4] 0
interdiction[sink_17,sink_8] 0
interdiction[sink_3,sink_23] 0
interdiction[sink_8,sink_20] 1
interdiction[sink_25,sink_20] 1
interdiction[sink_25,sink_15] 0
interdiction[sink_15,sink_29] 0
interdiction[sink_29,sink_28] 0
interdiction[sink_29,sink_2] 0
interdiction[sink_2,sink_15] 0
interdiction[sink_29,innode_7] 0
interdiction[innode_4,sink_19] 0
interdiction[sink_19,innode_3] 0
interdiction[innode_4,innode_5] 0
interdiction[sink_27,innode_5] 0
interdiction[sink_27,sink_19] 0
interdiction[sink_10,sink_11] 0
interdiction[sink_10,innode_2] 0
interdiction[sink_10,innode_3] 0
interdiction[innode_6,sink_25] 0
interdiction[sink_11,innode_1] 0
interdiction[sink_19,innode_2] 0
interdiction[source_3,innode_4] 0
interdiction[source_2,innode_7] 0
interdiction[sink_3,innode_8] 0
WCcheckFlow[source_1,sink_3] 39
WCcheckFlow[innode_1,sink_16] 1
WCcheckFlow[innode_6,sink_13] 13
WCcheckFlow[sink_13,sink_14] 12
WCcheckFlow[sink_14,sink_10] 11
WCcheckFlow[sink_25,sink_26] 15
WCcheckFlow[sink_26,sink_9] 0
WCcheckFlow[sink_9,sink_18] -1
WCcheckFlow[sink_26,sink_4] 14
WCcheckFlow[sink_4,sink_20] 1
WCcheckFlow[sink_18,sink_6] -2
WCcheckFlow[sink_25,innode_8] -36
WCcheckFlow[sink_6,sink_7] -5
WCcheckFlow[sink_6,sink_22] 2
WCcheckFlow[sink_7,sink_24] 3
WCcheckFlow[sink_22,sink_1] 1
WCcheckFlow[sink_24,sink_21] 2
WCcheckFlow[sink_21,sink_12] 1
WCcheckFlow[sink_7,sink_5] -9
WCcheckFlow[sink_5,sink_17] -10
WCcheckFlow[sink_17,sink_4] -12
WCcheckFlow[sink_17,sink_8] 1
WCcheckFlow[sink_3,sink_23] 1
WCcheckFlow[sink_8,sink_20] 0
WCcheckFlow[sink_25,sink_20] 0
WCcheckFlow[sink_25,sink_15] 6
WCcheckFlow[sink_15,sink_29] 5
WCcheckFlow[sink_29,sink_28] 1
WCcheckFlow[sink_29,sink_2] 1
WCcheckFlow[sink_2,sink_15] 0
WCcheckFlow[sink_29,innode_7] 2
WCcheckFlow[innode_4,sink_19] -4
WCcheckFlow[sink_19,innode_3] -5
WCcheckFlow[innode_4,innode_5] 2
WCcheckFlow[sink_27,innode_5] -1
WCcheckFlow[sink_27,sink_19] 0
WCcheckFlow[sink_10,sink_11] 3
WCcheckFlow[sink_10,innode_2] 1
WCcheckFlow[sink_10,innode_3] 6
WCcheckFlow[innode_6,sink_25] -14
WCcheckFlow[sink_11,innode_1] 2
WCcheckFlow[sink_19,innode_2] 0
WCcheckFlow[source_3,innode_4] -1
WCcheckFlow[source_2,innode_7] -1
WCcheckFlow[sink_3,innode_8] 37
